param n := 5;


param c: 
      1        2          3        4       5:=
 1    .       199       296      184       624
 2    199      .        278      220       605
 3    296      275        .      132       334
 4    184      220        132      .       460
 5    624      605       334      460        .;
 
 

param s :=
 1 1000
 2 1
 3 1
 4 1
 5 1;
 
 param c_limit := 1000;